102 57 127 28 190 196 198 107 128 35 175 158 74 66 131 197 6 170 60 111 73 194 100 189 120 7 65 37 185 148 33 80 179 119 137 51 45 145 124 108 126 75 160 134 71 56 30 98 77 193 79 156 133 106 183 157 151 15 62 153 53 90 76 42 154 63 142 95 85 159 64 173 44 165 32 67 13 186 188 17 84 149 58 5 39 82 2 176 4 115 101 8 9 141 19 24 113 163 81 182 103 105 114 11 27 46 132 181 20 55 150 94 147 130 162 25 86 112 54 177 116 91 140 47 143 29 1 99 118 50 191 18 135 144 195 36 34 61 117 123 52 59 43 92 3 121 122 70 187 38 72 14 68 171 136 83 40 164 146 78 180 12 178 87 23 26 174 129 168 49 0 155 199 125 161 31 104 96 166 93 16 89 139 138 97 169 48 69 152 88 10 167 109 22 41 172 184 21 192 110